/* Objective function */

max: 2.74 x1 + 2.74 x2 + 2.74 x3 +  2.74 x4 + 2.755 x5 + 2.755 x6 + 2.755 x7 + 2.755 x8 + 2.18 x9 + 2.18 x10 + 2.18 x11 + 2.18 x12  + 2.5825 x13 + 2.5825 x14 + 2.5825 x15 + 2.5825 x16 + 2.925 x17 + 2.925 x18 + 2.925 x19 + 2.925 x20 + 2.8275 x21 + 2.8275 x22 + 2.8275 x23 + 2.8275 x24 +3 x25 + 3 x26 + 3 x27 + 3 x28 + 2.15 x29 + 2.15 x30 + 2.15 x31 + 2.15 x32 + 2.915 x33 + 2.915 x34 + 2.915 x35 + 2.915 x36 + 2.6925 x37 + 2.6925 x38 + 2.6925 x39 + 2.6925x40 + 2.795 x41 + 2.795 x42 + 2.795 x43 + 2.795 x44 + 2.7825 x45 + 2.7825 x46 + 2.7825 x47 + 2.7825 x48;

/* Constraints */
x1 + x5 + x9 + x13 + x17 + x21 + x25 + x39 + x33 + x37 + x41 + x45 = 3;

x2 + x6 + x10 + x14 + x18 + x22 + x26 + x30 + x34 + x38 + x42 + x46 = 3;

x3 + x7 + x11 + x15 + x19 + x23 + x27 + x31 + x35 + x39 + x43 + x47 = 3;

x4 + x8 + x12 + x16 + x20 + x24 + x28 + x32 + x36 + x40 + x44 + x48 = 3;

x1 + x2 + x3 + x4 = 1;
  
x5 + x6 + x7 + x8 = 1;
  
x9 + x10 + x11 + x12 = 1;
  
x13 + x14 + x15 + x16 = 1;
  
x17 + x18 + x19 + x20 = 1;
  
x21 + x22 + x23 + x24 = 1;
  
x25 + x26 + x27 + x28 = 1;
  
x29 + x30 + x31 + x32 = 1;
  
x33 + x34 + x35 + x36 = 1;
  
x37 + x38 + x39 + x40 = 1;
  
x41 + x42 + x43 + x44 = 1;
  
x45 + x46 + x47 + x48 = 1;